g3 2 1 0	# problem inst_sans_ref
 65 223 1 0 55	# vars, constraints, objectives, ranges, eqns
 55 1	# nonlinear constraints, objectives
 0 0	# network constraints: nonlinear, linear
 10 10 10	# nonlinear vars in constraints, objectives, both
 0 0 0 1	# linear network variables; functions; arith, flags
 0 0 0 0 0	# discrete variables: binary, integer, nonlinear (b,c,o)
 725 65	# nonzeros in Jacobian, gradients
 0 0	# max name lengths: constraints, variables
 0 0 0 0 0	# common exprs: b,c,o,c1,o1
b
0 0 1
0 0 1
0 0 1
0 0 1
0 0 1
0 0 1
0 0 1
0 0 1
0 0 1
0 0 1
0 0 1
0 0 1
0 0 1
0 0 1
0 0 1
0 0 1
0 0 1
0 0 1
0 0 1
0 0 1
0 0 1
0 0 1
0 0 1
0 0 1
0 0 1
0 0 1
0 0 1
0 0 1
0 0 1
0 0 1
0 0 1
0 0 1
0 0 1
0 0 1
0 0 1
0 0 1
0 0 1
0 0 1
0 0 1
0 0 1
0 0 1
0 0 1
0 0 1
0 0 1
0 0 1
0 0 1
0 0 1
0 0 1
0 0 1
0 0 1
0 0 1
0 0 1
0 0 1
0 0 1
0 0 1
0 0 1
0 0 1
0 0 1
0 0 1
0 0 1
0 0 1
0 0 1
0 0 1
0 0 1
0 0 1
r
4 0
4 0
4 0
4 0
4 0
4 0
4 0
4 0
4 0
4 0
4 0
4 0
4 0
4 0
4 0
4 0
4 0
4 0
4 0
4 0
4 0
4 0
4 0
4 0
4 0
4 0
4 0
4 0
4 0
4 0
4 0
4 0
4 0
4 0
4 0
4 0
4 0
4 0
4 0
4 0
4 0
4 0
4 0
4 0
4 0
4 0
4 0
4 0
4 0
4 0
4 0
4 0
4 0
4 0
4 0
1 14.82
1 10.51
1 14.66
1 0
1 0
1 0
1 0
1 0
1 0
1 0
1 0
1 0
1 0
1 0
1 0
1 0
1 0
1 0
1 0
1 0
1 0
1 0
1 0
1 0
1 0
1 0
1 0
1 0
1 0
1 0
1 0
1 0
1 0
1 0
1 0
1 0
1 0
1 0
1 0
1 0
1 0
1 0
1 0
1 0
1 0
1 0
1 0
1 0
1 0
1 0
1 0
1 0
1 0
1 0
1 0
1 0
1 0
1 0
1 0
1 0
1 0
1 0
1 0
1 0
1 0
1 0
1 0
1 0
1 0
1 0
1 0
1 0
1 0
1 0
1 0
1 0
1 0
1 0
1 0
1 0
1 0
1 0
1 0
1 0
1 0
1 0
1 0
1 0
1 0
1 0
1 0
1 0
1 0
1 0
1 0
1 0
1 0
1 0
1 0
1 0
1 0
1 0
1 0
2 -1
2 -1
2 -1
2 -1
2 -1
2 -1
2 -1
2 -1
2 -1
2 -1
2 -1
2 -1
2 -1
2 -1
2 -1
2 -1
2 -1
2 -1
2 -1
2 -1
2 -1
2 -1
2 -1
2 -1
2 -1
2 -1
2 -1
2 -1
2 -1
2 -1
2 -1
2 -1
2 -1
2 -1
2 -1
2 -1
2 -1
2 -1
2 -1
2 -1
2 -1
2 -1
2 -1
2 -1
2 -1
2 -1
2 -1
2 -1
2 -1
2 -1
2 -1
2 -1
2 -1
2 -1
2 -1
2 0
2 0
2 0
2 0
2 0
2 0
2 0
2 0
2 0
2 0
C0
o16
o2
v0
v0
C1
o16
o2
v0
v1
C2
o16
o2
v0
v2
C3
o16
o2
v0
v3
C4
o16
o2
v0
v4
C5
o16
o2
v0
v5
C6
o16
o2
v0
v6
C7
o16
o2
v0
v7
C8
o16
o2
v0
v8
C9
o16
o2
v0
v9
C10
o16
o2
v1
v1
C11
o16
o2
v1
v2
C12
o16
o2
v1
v3
C13
o16
o2
v1
v4
C14
o16
o2
v1
v5
C15
o16
o2
v1
v6
C16
o16
o2
v1
v7
C17
o16
o2
v1
v8
C18
o16
o2
v1
v9
C19
o16
o2
v2
v2
C20
o16
o2
v2
v3
C21
o16
o2
v2
v4
C22
o16
o2
v2
v5
C23
o16
o2
v2
v6
C24
o16
o2
v2
v7
C25
o16
o2
v2
v8
C26
o16
o2
v2
v9
C27
o16
o2
v3
v3
C28
o16
o2
v3
v4
C29
o16
o2
v3
v5
C30
o16
o2
v3
v6
C31
o16
o2
v3
v7
C32
o16
o2
v3
v8
C33
o16
o2
v3
v9
C34
o16
o2
v4
v4
C35
o16
o2
v4
v5
C36
o16
o2
v4
v6
C37
o16
o2
v4
v7
C38
o16
o2
v4
v8
C39
o16
o2
v4
v9
C40
o16
o2
v5
v5
C41
o16
o2
v5
v6
C42
o16
o2
v5
v7
C43
o16
o2
v5
v8
C44
o16
o2
v5
v9
C45
o16
o2
v6
v6
C46
o16
o2
v6
v7
C47
o16
o2
v6
v8
C48
o16
o2
v6
v9
C49
o16
o2
v7
v7
C50
o16
o2
v7
v8
C51
o16
o2
v7
v9
C52
o16
o2
v8
v8
C53
o16
o2
v8
v9
C54
o16
o2
v9
v9
C55
n0
C56
n0
C57
n0
C58
n0
C59
n0
C60
n0
C61
n0
C62
n0
C63
n0
C64
n0
C65
n0
C66
n0
C67
n0
C68
n0
C69
n0
C70
n0
C71
n0
C72
n0
C73
n0
C74
n0
C75
n0
C76
n0
C77
n0
C78
n0
C79
n0
C80
n0
C81
n0
C82
n0
C83
n0
C84
n0
C85
n0
C86
n0
C87
n0
C88
n0
C89
n0
C90
n0
C91
n0
C92
n0
C93
n0
C94
n0
C95
n0
C96
n0
C97
n0
C98
n0
C99
n0
C100
n0
C101
n0
C102
n0
C103
n0
C104
n0
C105
n0
C106
n0
C107
n0
C108
n0
C109
n0
C110
n0
C111
n0
C112
n0
C113
n0
C114
n0
C115
n0
C116
n0
C117
n0
C118
n0
C119
n0
C120
n0
C121
n0
C122
n0
C123
n0
C124
n0
C125
n0
C126
n0
C127
n0
C128
n0
C129
n0
C130
n0
C131
n0
C132
n0
C133
n0
C134
n0
C135
n0
C136
n0
C137
n0
C138
n0
C139
n0
C140
n0
C141
n0
C142
n0
C143
n0
C144
n0
C145
n0
C146
n0
C147
n0
C148
n0
C149
n0
C150
n0
C151
n0
C152
n0
C153
n0
C154
n0
C155
n0
C156
n0
C157
n0
C158
n0
C159
n0
C160
n0
C161
n0
C162
n0
C163
n0
C164
n0
C165
n0
C166
n0
C167
n0
C168
n0
C169
n0
C170
n0
C171
n0
C172
n0
C173
n0
C174
n0
C175
n0
C176
n0
C177
n0
C178
n0
C179
n0
C180
n0
C181
n0
C182
n0
C183
n0
C184
n0
C185
n0
C186
n0
C187
n0
C188
n0
C189
n0
C190
n0
C191
n0
C192
n0
C193
n0
C194
n0
C195
n0
C196
n0
C197
n0
C198
n0
C199
n0
C200
n0
C201
n0
C202
n0
C203
n0
C204
n0
C205
n0
C206
n0
C207
n0
C208
n0
C209
n0
C210
n0
C211
n0
C212
n0
C213
n0
C214
n0
C215
n0
C216
n0
C217
n0
C218
n0
C219
n0
C220
n0
C221
n0
C222
n0
O0 0
o54
100
o2
o2
n0.588312
v0
v0
o2
o2
n0.454949
v0
v1
o2
o2
n-0.591829
v0
v2
o2
o2
n0.539835
v0
v3
o2
o2
n0.443839
v0
v4
o2
o2
n-0.067625
v0
v5
o2
o2
n-0.684996
v0
v6
o2
o2
n-0.265952
v0
v7
o2
o2
n-0.501555
v0
v8
o2
o2
n-0.342874
v0
v9
o2
o2
n0.454949
v1
v0
o2
o2
n4.612465
v1
v1
o2
o2
n-0.525778
v1
v2
o2
o2
n-0.734312
v1
v3
o2
o2
n-0.861115
v1
v4
o2
o2
n-0.874234
v1
v5
o2
o2
n0.164909
v1
v6
o2
o2
n-0.955802
v1
v7
o2
o2
n0.734663
v1
v8
o2
o2
n-0.450974
v1
v9
o2
o2
n-0.591829
v2
v0
o2
o2
n-0.525778
v2
v1
o2
o2
n5.365976
v2
v2
o2
o2
n0.10554
v2
v3
o2
o2
n-0.197329
v2
v4
o2
o2
n0.374896
v2
v5
o2
o2
n-0.902255
v2
v6
o2
o2
n-0.781457
v2
v7
o2
o2
n0.393573
v2
v8
o2
o2
n-0.760536
v2
v9
o2
o2
n0.539835
v3
v0
o2
o2
n-0.734312
v3
v1
o2
o2
n0.10554
v3
v2
o2
o2
n3.887736
v3
v3
o2
o2
n-0.191434
v3
v4
o2
o2
n-0.297294
v3
v5
o2
o2
n-0.01655
v3
v6
o2
o2
n-0.623132
v3
v7
o2
o2
n-0.272348
v3
v8
o2
o2
n-0.842025
v3
v9
o2
o2
n0.443839
v4
v0
o2
o2
n-0.861115
v4
v1
o2
o2
n-0.197329
v4
v2
o2
o2
n-0.191434
v4
v3
o2
o2
n3.111901
v4
v4
o2
o2
n-0.973801
v4
v5
o2
o2
n0.212358
v4
v6
o2
o2
n-0.521166
v4
v7
o2
o2
n-0.235548
v4
v8
o2
o2
n0.648488
v4
v9
o2
o2
n-0.067625
v5
v0
o2
o2
n-0.874234
v5
v1
o2
o2
n0.374896
v5
v2
o2
o2
n-0.297294
v5
v3
o2
o2
n-0.973801
v5
v4
o2
o2
n4.567729
v5
v5
o2
o2
n-0.638453
v5
v6
o2
o2
n-0.306188
v5
v7
o2
o2
n-0.422748
v5
v8
o2
o2
n-0.986759
v5
v9
o2
o2
n-0.684996
v6
v0
o2
o2
n0.164909
v6
v1
o2
o2
n-0.902255
v6
v2
o2
o2
n-0.01655
v6
v3
o2
o2
n0.212358
v6
v4
o2
o2
n-0.638453
v6
v5
o2
o2
n7.467566
v6
v6
o2
o2
n-0.648488
v6
v7
o2
o2
n-0.840336
v6
v8
o2
o2
n-0.171138
v6
v9
o2
o2
n-0.265952
v7
v0
o2
o2
n-0.955802
v7
v1
o2
o2
n-0.781457
v7
v2
o2
o2
n-0.623132
v7
v3
o2
o2
n-0.521166
v7
v4
o2
o2
n-0.306188
v7
v5
o2
o2
n-0.648488
v7
v6
o2
o2
n7.302148
v7
v7
o2
o2
n-0.660177
v7
v8
o2
o2
n-0.424474
v7
v9
o2
o2
n-0.501555
v8
v0
o2
o2
n0.734663
v8
v1
o2
o2
n0.393573
v8
v2
o2
o2
n-0.272348
v8
v3
o2
o2
n-0.235548
v8
v4
o2
o2
n-0.422748
v8
v5
o2
o2
n-0.840336
v8
v6
o2
o2
n-0.660177
v8
v7
o2
o2
n2.253792
v8
v8
o2
o2
n0.261181
v8
v9
o2
o2
n-0.342874
v9
v0
o2
o2
n-0.450974
v9
v1
o2
o2
n-0.760536
v9
v2
o2
o2
n-0.842025
v9
v3
o2
o2
n0.648488
v9
v4
o2
o2
n-0.986759
v9
v5
o2
o2
n-0.171138
v9
v6
o2
o2
n-0.424474
v9
v7
o2
o2
n0.261181
v9
v8
o2
o2
n6.023923
v9
v9
k64
34
68
102
136
170
204
238
272
306
340
347
354
361
368
375
382
389
396
403
410
417
424
431
438
445
452
459
466
473
480
487
494
501
508
515
522
529
536
543
550
557
564
571
578
585
592
599
606
613
620
627
634
641
648
655
662
669
676
683
690
697
704
711
718
J0 2
0 0
10 1
J1 3
0 0
1 0
11 1
J2 3
0 0
2 0
12 1
J3 3
0 0
3 0
13 1
J4 3
0 0
4 0
14 1
J5 3
0 0
5 0
15 1
J6 3
0 0
6 0
16 1
J7 3
0 0
7 0
17 1
J8 3
0 0
8 0
18 1
J9 3
0 0
9 0
19 1
J10 2
1 0
20 1
J11 3
1 0
2 0
21 1
J12 3
1 0
3 0
22 1
J13 3
1 0
4 0
23 1
J14 3
1 0
5 0
24 1
J15 3
1 0
6 0
25 1
J16 3
1 0
7 0
26 1
J17 3
1 0
8 0
27 1
J18 3
1 0
9 0
28 1
J19 2
2 0
29 1
J20 3
2 0
3 0
30 1
J21 3
2 0
4 0
31 1
J22 3
2 0
5 0
32 1
J23 3
2 0
6 0
33 1
J24 3
2 0
7 0
34 1
J25 3
2 0
8 0
35 1
J26 3
2 0
9 0
36 1
J27 2
3 0
37 1
J28 3
3 0
4 0
38 1
J29 3
3 0
5 0
39 1
J30 3
3 0
6 0
40 1
J31 3
3 0
7 0
41 1
J32 3
3 0
8 0
42 1
J33 3
3 0
9 0
43 1
J34 2
4 0
44 1
J35 3
4 0
5 0
45 1
J36 3
4 0
6 0
46 1
J37 3
4 0
7 0
47 1
J38 3
4 0
8 0
48 1
J39 3
4 0
9 0
49 1
J40 2
5 0
50 1
J41 3
5 0
6 0
51 1
J42 3
5 0
7 0
52 1
J43 3
5 0
8 0
53 1
J44 3
5 0
9 0
54 1
J45 2
6 0
55 1
J46 3
6 0
7 0
56 1
J47 3
6 0
8 0
57 1
J48 3
6 0
9 0
58 1
J49 2
7 0
59 1
J50 3
7 0
8 0
60 1
J51 3
7 0
9 0
61 1
J52 2
8 0
62 1
J53 3
8 0
9 0
63 1
J54 2
9 0
64 1
J55 65
0 -0.6
1 0.1
2 0.5
3 0.23
4 0.99
5 -0.45
6 -0.59
7 -0.32
8 -0.57
9 0.92
10 0.29
11 -0.33
12 0.3
13 -0.78
14 0.08
15 0.62
16 -0.96
17 -0.67
18 -1.51
19 1.02
20 0.22
21 -0.98
22 0.2
23 0.74
24 0.5
25 0.36
26 -0.34
27 -0.69
28 1.22
29 0.29
30 -1.78
31 -0.47
32 -0.51
33 -0.97
34 -0.35
35 1.21
36 1.39
37 0.24
38 1.44
39 -0.61
40 0.79
41 1.16
42 -1.88
43 1.9
44 -0.43
45 1.62
46 -0.32
47 -1.14
48 -0.58
49 -0.79
50 -0.39
51 1.59
52 0.92
53 -1.92
54 -0.15
55 0.95
56 1.09
57 -0.16
58 -0.26
59 -0.03
60 0.59
61 0.29
62 -0.82
63 -0.33
64 0.31
J56 65
0 0.31
1 -0.96
2 -0.29
3 0.55
4 -1
5 -0.96
6 -0.58
7 -0.99
8 0.35
9 -0.86
10 0.26
11 1.37
12 1.55
13 -1.01
14 -1.09
15 1.06
16 -1.09
17 0.68
18 -1.27
19 1.21
20 0.42
21 -0.88
22 -0.34
23 0.77
24 -0.51
25 1.68
26 0.69
27 -1.55
28 -1.53
29 0.84
30 1.19
31 0.74
32 1.83
33 -1.82
34 0.35
35 -0.22
36 -0.06
37 -0.72
38 1.43
39 -0.87
40 -1.95
41 -0.57
42 -0.18
43 1.47
44 0.25
45 0.43
46 0.03
47 -1.91
48 -0.92
49 0.23
50 0.28
51 1.87
52 0.22
53 1.02
54 -0.84
55 -0.16
56 1.11
57 -1.71
58 -1.05
59 -0.44
60 1.92
61 -1.74
62 0.78
63 1.24
64 -0.48
J57 65
0 0.76
1 0.52
2 0.4
3 -0.85
4 0.22
5 0.5
6 0.59
7 0.94
8 0.39
9 -0.57
10 -0.76
11 1.51
12 1.97
13 0.82
14 1.08
15 -0.93
16 -1.12
17 1.42
18 -0.97
19 -1.38
20 0.61
21 -1.54
22 -0.51
23 -0.03
24 -0.82
25 -1.95
26 -1.06
27 -1.16
28 0.48
29 -0.78
30 0.08
31 -1.12
32 0.03
33 -0.36
34 1.54
35 -1.41
36 -1.79
37 0.55
38 1.14
39 0.1
40 1.96
41 0.37
42 1.28
43 -1.78
44 -0.44
45 0.48
46 0.25
47 0.48
48 0.51
49 0.56
50 -0.22
51 -0.54
52 -1.73
53 -0.71
54 -0.73
55 -0.99
56 -0.53
57 0.57
58 -0.37
59 0.97
60 1.23
61 -1.48
62 0.76
63 -0.46
64 -0.49
J58 2
0 -1
10 1
J59 2
0 -1
11 1
J60 2
0 -1
12 1
J61 2
0 -1
13 1
J62 2
0 -1
14 1
J63 2
0 -1
15 1
J64 2
0 -1
16 1
J65 2
0 -1
17 1
J66 2
0 -1
18 1
J67 2
0 -1
19 1
J68 2
1 -1
20 1
J69 2
1 -1
21 1
J70 2
1 -1
22 1
J71 2
1 -1
23 1
J72 2
1 -1
24 1
J73 2
1 -1
25 1
J74 2
1 -1
26 1
J75 2
1 -1
27 1
J76 2
1 -1
28 1
J77 2
2 -1
29 1
J78 2
2 -1
30 1
J79 2
2 -1
31 1
J80 2
2 -1
32 1
J81 2
2 -1
33 1
J82 2
2 -1
34 1
J83 2
2 -1
35 1
J84 2
2 -1
36 1
J85 2
3 -1
37 1
J86 2
3 -1
38 1
J87 2
3 -1
39 1
J88 2
3 -1
40 1
J89 2
3 -1
41 1
J90 2
3 -1
42 1
J91 2
3 -1
43 1
J92 2
4 -1
44 1
J93 2
4 -1
45 1
J94 2
4 -1
46 1
J95 2
4 -1
47 1
J96 2
4 -1
48 1
J97 2
4 -1
49 1
J98 2
5 -1
50 1
J99 2
5 -1
51 1
J100 2
5 -1
52 1
J101 2
5 -1
53 1
J102 2
5 -1
54 1
J103 2
6 -1
55 1
J104 2
6 -1
56 1
J105 2
6 -1
57 1
J106 2
6 -1
58 1
J107 2
7 -1
59 1
J108 2
7 -1
60 1
J109 2
7 -1
61 1
J110 2
8 -1
62 1
J111 2
8 -1
63 1
J112 2
9 -1
64 1
J113 2
1 -1
11 1
J114 2
2 -1
12 1
J115 2
3 -1
13 1
J116 2
4 -1
14 1
J117 2
5 -1
15 1
J118 2
6 -1
16 1
J119 2
7 -1
17 1
J120 2
8 -1
18 1
J121 2
9 -1
19 1
J122 2
2 -1
21 1
J123 2
3 -1
22 1
J124 2
4 -1
23 1
J125 2
5 -1
24 1
J126 2
6 -1
25 1
J127 2
7 -1
26 1
J128 2
8 -1
27 1
J129 2
9 -1
28 1
J130 2
3 -1
30 1
J131 2
4 -1
31 1
J132 2
5 -1
32 1
J133 2
6 -1
33 1
J134 2
7 -1
34 1
J135 2
8 -1
35 1
J136 2
9 -1
36 1
J137 2
4 -1
38 1
J138 2
5 -1
39 1
J139 2
6 -1
40 1
J140 2
7 -1
41 1
J141 2
8 -1
42 1
J142 2
9 -1
43 1
J143 2
5 -1
45 1
J144 2
6 -1
46 1
J145 2
7 -1
47 1
J146 2
8 -1
48 1
J147 2
9 -1
49 1
J148 2
6 -1
51 1
J149 2
7 -1
52 1
J150 2
8 -1
53 1
J151 2
9 -1
54 1
J152 2
7 -1
56 1
J153 2
8 -1
57 1
J154 2
9 -1
58 1
J155 2
8 -1
60 1
J156 2
9 -1
61 1
J157 2
9 -1
63 1
J158 2
0 -2
10 1
J159 3
0 -1
1 -1
11 1
J160 3
0 -1
2 -1
12 1
J161 3
0 -1
3 -1
13 1
J162 3
0 -1
4 -1
14 1
J163 3
0 -1
5 -1
15 1
J164 3
0 -1
6 -1
16 1
J165 3
0 -1
7 -1
17 1
J166 3
0 -1
8 -1
18 1
J167 3
0 -1
9 -1
19 1
J168 2
1 -2
20 1
J169 3
1 -1
2 -1
21 1
J170 3
1 -1
3 -1
22 1
J171 3
1 -1
4 -1
23 1
J172 3
1 -1
5 -1
24 1
J173 3
1 -1
6 -1
25 1
J174 3
1 -1
7 -1
26 1
J175 3
1 -1
8 -1
27 1
J176 3
1 -1
9 -1
28 1
J177 2
2 -2
29 1
J178 3
2 -1
3 -1
30 1
J179 3
2 -1
4 -1
31 1
J180 3
2 -1
5 -1
32 1
J181 3
2 -1
6 -1
33 1
J182 3
2 -1
7 -1
34 1
J183 3
2 -1
8 -1
35 1
J184 3
2 -1
9 -1
36 1
J185 2
3 -2
37 1
J186 3
3 -1
4 -1
38 1
J187 3
3 -1
5 -1
39 1
J188 3
3 -1
6 -1
40 1
J189 3
3 -1
7 -1
41 1
J190 3
3 -1
8 -1
42 1
J191 3
3 -1
9 -1
43 1
J192 2
4 -2
44 1
J193 3
4 -1
5 -1
45 1
J194 3
4 -1
6 -1
46 1
J195 3
4 -1
7 -1
47 1
J196 3
4 -1
8 -1
48 1
J197 3
4 -1
9 -1
49 1
J198 2
5 -2
50 1
J199 3
5 -1
6 -1
51 1
J200 3
5 -1
7 -1
52 1
J201 3
5 -1
8 -1
53 1
J202 3
5 -1
9 -1
54 1
J203 2
6 -2
55 1
J204 3
6 -1
7 -1
56 1
J205 3
6 -1
8 -1
57 1
J206 3
6 -1
9 -1
58 1
J207 2
7 -2
59 1
J208 3
7 -1
8 -1
60 1
J209 3
7 -1
9 -1
61 1
J210 2
8 -2
62 1
J211 3
8 -1
9 -1
63 1
J212 2
9 -2
64 1
J213 2
0 -1
10 1
J214 2
1 -1
20 1
J215 2
2 -1
29 1
J216 2
3 -1
37 1
J217 2
4 -1
44 1
J218 2
5 -1
50 1
J219 2
6 -1
55 1
J220 2
7 -1
59 1
J221 2
8 -1
62 1
J222 2
9 -1
64 1
G0 65
0 0.89
1 0.92
2 -0.66
3 0.01
4 -0.99
5 -0.01
6 -0.69
7 -0.17
8 0.45
9 -0.35
10 -0.408312
11 0.730102
12 -0.306343
13 0.560331
14 0.752321
15 0.08525
16 -0.470008
17 -0.078095
18 -0.786891
19 -0.114252
20 -5.362465
21 0.091555
22 -0.041377
23 -0.007769
24 -0.021531
25 0.150181
26 0.021605
27 0.310675
28 0.031949
29 -4.705976
30 0.068919
31 0.094659
32 0.010209
33 -0.02549
34 -0.007085
35 -0.097146
36 -0.008928
37 -4.187736
38 -0.047133
39 -0.015412
40 0.1131
41 0.016263
42 0.234696
43 0.024051
44 -3.221901
45 -0.022398
46 0.155283
47 0.022331
48 0.321097
49 0.033023
50 -4.717729
51 0.016907
52 0.002375
53 0.035495
54 0.003518
55 -7.647566
56 -0.013023
57 -0.119329
58 -0.017724
59 -6.332148
60 -0.029645
61 -0.001053
62 -2.503792
63 -0.042362
64 -6.703923
